200
750
599
598
598
597
595
592
587
587
586
584
584
573
569
569
569
568
567
565
559
559
558
557
556
555
555
552
547
542
537
537
532
530
525
525
524
524
524
521
521
517
515
511
500
491
490
488
486
485
480
478
476
468
467
461
461
455
452
451
451
450
447
445
443
442
440
440
433
433
432
429
427
425
423
419
408
404
402
400
399
399
396
385
383
377
375
375
371
370
368
367
366
354
351
344
343
337
330
328
323
321
319
316
314
314
312
311
308
308
307
304
301
300
292
291
290
285
283
277
276
272
271
268
267
265
264
263
258
258
256
253
251
248
244
238
236
230
229
229
229
228
225
210
206
205
203
202
198
196
190
185
185
181
179
173
172
170
168
166
165
165
162
156
156
150
150
149
148
146
142
141
140
139
136
129
121
120
117
117
116
115
112
111
104
104
103
102
101
100
98
97
95
94
94
91
86
85
85
83
80
77
